(set-info :status unsat)
(declare-const symbol_216 (_ BitVec 32))
(declare-const symbol_140 (_ BitVec 32))
(declare-const symbol_240 (_ BitVec 32))
(declare-const symbol_222 (_ BitVec 32))
(declare-const symbol_35 (_ BitVec 32))
(declare-const symbol_226 (_ BitVec 32))
(declare-const symbol_78 (_ BitVec 32))
(declare-const symbol_156 (_ BitVec 32))
(declare-const symbol_110 (_ BitVec 32))
(declare-const symbol_198 (_ BitVec 32))
(declare-const symbol_58 (_ BitVec 32))
(declare-const symbol_17 (_ BitVec 32))
(declare-const symbol_152 (_ BitVec 32))
(declare-const symbol_224 (_ BitVec 32))
(declare-const symbol_54 (_ BitVec 32))
(declare-const symbol_272 (_ BitVec 32))
(declare-const symbol_250 (_ BitVec 32))
(declare-const symbol_106 (_ BitVec 32))
(declare-const symbol_130 (_ BitVec 32))
(declare-const symbol_254 (_ BitVec 32))
(declare-const symbol_128 (_ BitVec 32))
(declare-const symbol_84 (_ BitVec 32))
(declare-const symbol_26 (_ BitVec 32))
(declare-const symbol_158 (_ BitVec 32))
(declare-const symbol_29 (_ BitVec 32))
(declare-const symbol_15 (_ BitVec 32))
(declare-const symbol_104 (_ BitVec 32))
(declare-const symbol_166 (_ BitVec 32))
(declare-const symbol_181 (_ BitVec 32))
(declare-const symbol_47 (_ BitVec 32))
(declare-const symbol_52 (_ BitVec 32))
(declare-const symbol_11 (_ BitVec 32))
(declare-const symbol_95 (_ BitVec 32))
(declare-const symbol_221 (_ BitVec 32))
(declare-const symbol_24 (_ BitVec 32))
(declare-const symbol_264 (_ BitVec 32))
(declare-const symbol_185 (_ BitVec 32))
(declare-const symbol_74 (_ BitVec 32))
(declare-const symbol_234 (_ BitVec 32))
(declare-const symbol_228 (_ BitVec 32))
(declare-const symbol_80 (_ BitVec 32))
(declare-const symbol_50 (_ BitVec 32))
(declare-const symbol_244 (_ BitVec 32))
(declare-const symbol_200 (_ BitVec 32))
(declare-const symbol_66 (_ BitVec 32))
(declare-const symbol_40 (_ BitVec 32))
(declare-const symbol_136 (_ BitVec 32))
(declare-const symbol_21 (_ BitVec 32))
(declare-const symbol_19 (_ BitVec 32))
(declare-const symbol_43 (_ BitVec 32))
(declare-const symbol_218 (_ BitVec 32))
(declare-const symbol_93 (_ BitVec 32))
(declare-const symbol_2 (_ BitVec 32))
(declare-const symbol_101 (_ BitVec 32))
(declare-const symbol_277 (_ BitVec 32))
(declare-const symbol_154 (_ BitVec 32))
(declare-const symbol_86 (_ BitVec 32))
(declare-const symbol_212 (_ BitVec 32))
(declare-const symbol_208 (_ BitVec 32))
(declare-const symbol_194 (_ BitVec 32))
(declare-const symbol_242 (_ BitVec 32))
(declare-const symbol_210 (_ BitVec 32))
(declare-const symbol_238 (_ BitVec 32))
(declare-const symbol_273 (_ BitVec 32))
(declare-const symbol_76 (_ BitVec 32))
(declare-const symbol_70 (_ BitVec 32))
(declare-const symbol_5 (_ BitVec 32))
(declare-const symbol_187 (_ BitVec 32))
(declare-const symbol_90 (_ BitVec 32))
(declare-const symbol_32 (_ BitVec 32))
(declare-const symbol_232 (_ BitVec 32))
(declare-const symbol_68 (_ BitVec 32))
(declare-const symbol_162 (_ BitVec 32))
(declare-const symbol_150 (_ BitVec 32))
(declare-const symbol_260 (_ BitVec 32))
(declare-const symbol_160 (_ BitVec 32))
(declare-const symbol_144 (_ BitVec 32))
(declare-const symbol_134 (_ BitVec 32))
(declare-const symbol_112 (_ BitVec 32))
(declare-const symbol_27 (_ BitVec 32))
(declare-const symbol_118 (_ BitVec 32))
(declare-const symbol_33 (_ BitVec 32))
(declare-const symbol_45 (_ BitVec 32))
(declare-const symbol_164 (_ BitVec 32))
(declare-const symbol_132 (_ BitVec 32))
(declare-const symbol_49 (_ BitVec 32))
(declare-const symbol_253 (_ BitVec 32))
(declare-const symbol_63 (_ BitVec 32))
(declare-const symbol_204 (_ BitVec 32))
(declare-const symbol_168 (_ BitVec 32))
(declare-const symbol_116 (_ BitVec 32))
(declare-const symbol_172 (_ BitVec 32))
(declare-const symbol_0 (_ BitVec 32))
(declare-const symbol_82 (_ BitVec 32))
(declare-const symbol_9 (_ BitVec 32))
(declare-const symbol_230 (_ BitVec 32))
(declare-const symbol_192 (_ BitVec 32))
(declare-const symbol_179 (_ BitVec 32))
(declare-const symbol_65 (_ BitVec 32))
(declare-const symbol_183 (_ BitVec 32))
(declare-const symbol_108 (_ BitVec 32))
(declare-const symbol_248 (_ BitVec 32))
(declare-const symbol_270 (_ BitVec 32))
(declare-const symbol_61 (_ BitVec 32))
(declare-const symbol_3 (_ BitVec 32))
(declare-const symbol_123 (_ BitVec 32))
(declare-const symbol_126 (_ BitVec 32))
(declare-const symbol_280 (_ BitVec 32))
(declare-const symbol_262 (_ BitVec 32))
(declare-const symbol_236 (_ BitVec 32))
(declare-const symbol_196 (_ BitVec 32))
(declare-const symbol_282 (_ BitVec 32))
(declare-const symbol_202 (_ BitVec 32))
(declare-const symbol_72 (_ BitVec 32))
(declare-const symbol_97 (_ BitVec 32))
(declare-const symbol_177 (_ BitVec 32))
(declare-const symbol_258 (_ BitVec 32))
(declare-const symbol_266 (_ BitVec 32))
(declare-const symbol_170 (_ BitVec 32))
(declare-const symbol_275 (_ BitVec 32))
(declare-const symbol_246 (_ BitVec 32))
(declare-const symbol_37 (_ BitVec 32))
(declare-const symbol_120 (_ BitVec 32))
(declare-const symbol_88 (_ BitVec 32))
(declare-const symbol_190 (_ BitVec 32))
(declare-const symbol_174 (_ BitVec 32))
(declare-const symbol_99 (_ BitVec 32))
(declare-const symbol_142 (_ BitVec 32))
(declare-const symbol_256 (_ BitVec 32))
(declare-const symbol_124 (_ BitVec 32))
(declare-const symbol_206 (_ BitVec 32))
(declare-const symbol_13 (_ BitVec 32))
(declare-const symbol_59 (_ BitVec 32))
(declare-const symbol_56 (_ BitVec 32))
(declare-const symbol_268 (_ BitVec 32))
(declare-const symbol_146 (_ BitVec 32))
(declare-const symbol_148 (_ BitVec 32))
(declare-const symbol_138 (_ BitVec 32))
(declare-const symbol_8 (_ BitVec 32))
(declare-const symbol_114 (_ BitVec 32))
(declare-const symbol_214 (_ BitVec 32))
(assert (= symbol_282 (_ bv2 32)))
(assert (not (not (= symbol_282 (_ bv1 32)))))
(assert (not (not (= symbol_280 (_ bv1 32)))))
(assert (not (not (= symbol_277 (_ bv1 32)))))
(assert (not (not (= symbol_275 (_ bv1 32)))))
(assert (not (not (= symbol_273 (_ bv1 32)))))
(assert (not (not (= symbol_272 (_ bv1 32)))))
(assert (not (not (= symbol_270 (_ bv1 32)))))
(assert (not (not (= symbol_268 (_ bv1 32)))))
(assert (not (not (= symbol_266 (_ bv1 32)))))
(assert (not (not (= symbol_264 (_ bv1 32)))))
(assert (not (not (= symbol_262 (_ bv1 32)))))
(assert (not (not (= symbol_260 (_ bv1 32)))))
(assert (not (not (= symbol_258 (_ bv1 32)))))
(assert (not (not (= symbol_256 (_ bv1 32)))))
(assert (not (not (= symbol_254 (_ bv1 32)))))
(assert (not (not (= symbol_253 (_ bv1 32)))))
(assert (not (not (= symbol_250 (_ bv1 32)))))
(assert (not (not (= symbol_248 (_ bv1 32)))))
(assert (not (not (= symbol_246 (_ bv1 32)))))
(assert (not (not (= symbol_244 (_ bv1 32)))))
(assert (not (not (= symbol_242 (_ bv1 32)))))
(assert (not (not (= symbol_240 (_ bv1 32)))))
(assert (not (not (= symbol_238 (_ bv1 32)))))
(assert (not (not (= symbol_236 (_ bv1 32)))))
(assert (not (not (= symbol_234 (_ bv1 32)))))
(assert (not (not (= symbol_232 (_ bv1 32)))))
(assert (not (not (= symbol_230 (_ bv1 32)))))
(assert (not (not (= symbol_228 (_ bv1 32)))))
(assert (not (not (= symbol_226 (_ bv1 32)))))
(assert (not (not (= symbol_224 (_ bv1 32)))))
(assert (not (not (= symbol_222 (_ bv1 32)))))
(assert (not (not (= symbol_221 (_ bv1 32)))))
(assert (not (not (= symbol_218 (_ bv1 32)))))
(assert (not (not (= symbol_216 (_ bv1 32)))))
(assert (not (not (= symbol_214 (_ bv1 32)))))
(assert (not (not (= symbol_212 (_ bv1 32)))))
(assert (not (not (= symbol_210 (_ bv1 32)))))
(assert (not (not (= symbol_208 (_ bv1 32)))))
(assert (not (not (= symbol_206 (_ bv1 32)))))
(assert (not (not (= symbol_204 (_ bv1 32)))))
(assert (not (not (= symbol_202 (_ bv1 32)))))
(assert (not (not (= symbol_200 (_ bv1 32)))))
(assert (not (not (= symbol_198 (_ bv1 32)))))
(assert (not (not (= symbol_196 (_ bv1 32)))))
(assert (not (not (= symbol_194 (_ bv1 32)))))
(assert (not (not (= symbol_192 (_ bv1 32)))))
(assert (not (not (= symbol_190 (_ bv1 32)))))
(assert (not (not (= symbol_187 (_ bv1 32)))))
(assert (not (not (= symbol_185 (_ bv1 32)))))
(assert (not (not (= symbol_183 (_ bv1 32)))))
(assert (not (not (= symbol_181 (_ bv1 32)))))
(assert (not (not (= symbol_179 (_ bv1 32)))))
(assert (not (not (= symbol_177 (_ bv1 32)))))
(assert (not (not (= symbol_174 (_ bv1 32)))))
(assert (not (not (= symbol_172 (_ bv1 32)))))
(assert (not (not (= symbol_170 (_ bv1 32)))))
(assert (not (not (= symbol_168 (_ bv1 32)))))
(assert (not (not (= symbol_166 (_ bv1 32)))))
(assert (not (not (= symbol_164 (_ bv1 32)))))
(assert (not (not (= symbol_162 (_ bv1 32)))))
(assert (not (not (= symbol_160 (_ bv1 32)))))
(assert (not (not (= symbol_158 (_ bv1 32)))))
(assert (not (not (= symbol_156 (_ bv1 32)))))
(assert (not (not (= symbol_154 (_ bv1 32)))))
(assert (not (not (= symbol_152 (_ bv1 32)))))
(assert (not (not (= symbol_150 (_ bv1 32)))))
(assert (not (not (= symbol_148 (_ bv1 32)))))
(assert (not (not (= symbol_146 (_ bv1 32)))))
(assert (not (not (= symbol_144 (_ bv1 32)))))
(assert (not (not (= symbol_142 (_ bv1 32)))))
(assert (not (not (= symbol_140 (_ bv1 32)))))
(assert (not (not (= symbol_138 (_ bv1 32)))))
(assert (not (not (= symbol_136 (_ bv1 32)))))
(assert (not (not (= symbol_134 (_ bv1 32)))))
(assert (not (not (= symbol_132 (_ bv1 32)))))
(assert (not (not (= symbol_130 (_ bv1 32)))))
(assert (not (not (= symbol_128 (_ bv1 32)))))
(assert (not (not (= symbol_126 (_ bv1 32)))))
(assert (not (not (= symbol_124 (_ bv1 32)))))
(assert (not (not (= symbol_123 (_ bv1 32)))))
(assert (not (not (= symbol_120 (_ bv1 32)))))
(assert (not (not (= symbol_118 (_ bv1 32)))))
(assert (not (not (= symbol_116 (_ bv1 32)))))
(assert (not (not (= symbol_114 (_ bv1 32)))))
(assert (not (not (= symbol_112 (_ bv1 32)))))
(assert (not (not (= symbol_110 (_ bv1 32)))))
(assert (not (not (= symbol_108 (_ bv1 32)))))
(assert (not (not (= symbol_106 (_ bv1 32)))))
(assert (not (not (= symbol_104 (_ bv1 32)))))
(assert (not (not (= symbol_101 (_ bv1 32)))))
(assert (not (not (= symbol_99 (_ bv1 32)))))
(assert (not (not (= symbol_97 (_ bv1 32)))))
(assert (not (not (= symbol_95 (_ bv1 32)))))
(assert (not (not (= symbol_93 (_ bv1 32)))))
(assert (not (not (= symbol_90 (_ bv1 32)))))
(assert (not (not (= symbol_88 (_ bv1 32)))))
(assert (not (not (= symbol_86 (_ bv1 32)))))
(assert (not (not (= symbol_84 (_ bv1 32)))))
(assert (not (not (= symbol_82 (_ bv1 32)))))
(assert (not (not (= symbol_80 (_ bv1 32)))))
(assert (not (not (= symbol_78 (_ bv1 32)))))
(assert (not (not (= symbol_76 (_ bv1 32)))))
(assert (not (not (= symbol_74 (_ bv1 32)))))
(assert (not (not (= symbol_72 (_ bv1 32)))))
(assert (not (not (= symbol_70 (_ bv1 32)))))
(assert (not (not (= symbol_68 (_ bv1 32)))))
(assert (not (not (= symbol_66 (_ bv1 32)))))
(assert (not (not (= symbol_65 (_ bv1 32)))))
(assert (not (not (= symbol_63 (_ bv1 32)))))
(assert (not (not (= symbol_61 (_ bv1 32)))))
(assert (not (not (= symbol_59 (_ bv1 32)))))
(assert (not (not (= symbol_58 (_ bv1 32)))))
(assert (not (not (= symbol_56 (_ bv1 32)))))
(assert (not (not (= symbol_54 (_ bv1 32)))))
(assert (not (not (= symbol_52 (_ bv1 32)))))
(assert (not (not (= symbol_50 (_ bv1 32)))))
(assert (not (not (= symbol_49 (_ bv1 32)))))
(assert (not (not (= symbol_47 (_ bv1 32)))))
(assert (not (not (= symbol_45 (_ bv1 32)))))
(assert (not (not (= symbol_43 (_ bv1 32)))))
(assert (not (not (= symbol_40 (_ bv1 32)))))
(assert (not (not (= symbol_37 (_ bv1 32)))))
(assert (not (not (= symbol_35 (_ bv1 32)))))
(assert (not (not (= symbol_33 (_ bv1 32)))))
(assert (not (not (= symbol_32 (_ bv1 32)))))
(assert (not (not (= symbol_29 (_ bv1 32)))))
(assert (not (not (= symbol_27 (_ bv1 32)))))
(assert (not (not (= symbol_26 (_ bv1 32)))))
(assert (not (not (= symbol_24 (_ bv1 32)))))
(assert (not (not (= symbol_21 (_ bv1 32)))))
(assert (not (not (= symbol_19 (_ bv1 32)))))
(assert (not (not (= symbol_17 (_ bv1 32)))))
(assert (not (not (= symbol_15 (_ bv1 32)))))
(assert (not (not (= symbol_13 (_ bv1 32)))))
(assert (not (not (= symbol_11 (_ bv1 32)))))
(assert (not (not (= symbol_9 (_ bv1 32)))))
(assert (not (not (= symbol_8 (_ bv1 32)))))
(assert (not (not (= symbol_5 (_ bv1 32)))))
(assert (not (not (= symbol_3 (_ bv1 32)))))
(assert (not (not (= symbol_2 (_ bv1 32)))))
(assert (not (not (= symbol_0 (_ bv1 32)))))
(check-sat)